(declare-fun N3D () Int)
(declare-fun NA () Int)
(declare-fun NB () Int)
(declare-fun NE () Int)
(declare-fun Nkz () Int)
(declare-fun Norb () Int)
(declare-fun Nqz () Int)
(declare-fun Nw () Int)
(declare-fun k () Int)

(assert (and
  (forall ((E_0 Int) (E_1 Int) (a_0 Int) (a_1 Int) (b_0 Int) (b_1 Int) (i_0 Int) (i_1 Int) (j_0 Int) (j_1 Int) (q_0 Int) (q_1 Int) (w_0 Int) (w_1 Int))
    (or
      (not (= a_0 a_1))
      (not (<= 1 Norb))
      (not (<= w_1 E_1))
      (not (<= w_0 E_0))
      (not (<= 0 E_0))
      (not (<= E_0 (- NE 1)))
      (not (<= 0 q_0))
      (not (<= q_0 (- Nqz 1)))
      (not (<= 0 w_0))
      (not (<= w_0 (- Nw 1)))
      (not (<= 0 i_0))
      (not (<= i_0 (- N3D 1)))
      (not (<= 0 j_0))
      (not (<= j_0 (- N3D 1)))
      (not (<= 0 a_0))
      (not (<= a_0 (- NA 1)))
      (not (<= 0 b_0))
      (not (<= b_0 (- NB 1)))
      (not (<= 0 E_1))
      (not (<= E_1 (- NE 1)))
      (not (<= 0 q_1))
      (not (<= q_1 (- Nqz 1)))
      (not (<= 0 w_1))
      (not (<= w_1 (- Nw 1)))
      (not (<= 0 i_1))
      (not (<= i_1 (- N3D 1)))
      (not (<= 0 j_1))
      (not (<= j_1 (- N3D 1)))
      (not (<= 0 a_1))
      (not (<= a_1 (- NA 1)))
      (not (<= 0 b_1))
      (not (<= b_1 (- NB 1)))
      (not (= k (+ k 1)))
      (not (= E_0 E_1))
    )
  )
  (and
    (<= 0 k)
    (<= (+ k 1) (- Nkz 1))
    (<= 1 (- NB 1))
    (<= 1 (- NA 1))
    (<= 1 (- N3D 1))
    (<= 1 (- Nw 1))
    (<= 1 (- Nqz 1))
    (<= 1 (- NE 1))
    (<= 1 (- Nkz 1))
  )
))

(check-sat)